# Solution for model nitrogen fixation_srl_ilp
# Objective value = 9.0726183435625209e+00
Z_634_0_0 0
Z_634_0_1 0
Z_634_0_2 1
Z_634_0_3 0
Z_634_0_4 0
Z_191_0_0 0
Z_191_0_1 0
Z_191_0_2 1
Z_191_0_3 0
Z_191_0_4 0
Z_88_0_0 0
Z_88_0_1 0
Z_88_0_2 1
Z_88_0_3 0
Z_88_0_4 0
Z_478_0_0 0
Z_478_0_1 0
Z_478_0_2 1
Z_478_0_3 0
Z_478_0_4 0
Z_680_0_0 0
Z_680_0_1 0
Z_680_0_2 1
Z_680_0_3 0
Z_680_0_4 0
Z_96_6_0 0
Z_96_6_1 0
Z_96_6_2 0
Z_96_6_3 0
Z_96_6_4 1
Z_96_4_0 0
Z_96_4_1 0
Z_96_4_2 0
Z_96_4_3 0
Z_96_4_4 1
Z_96_5_0 1
Z_96_5_1 0
Z_96_5_2 0
Z_96_5_3 0
Z_96_5_4 0
Z_96_1_0 0
Z_96_1_1 0
Z_96_1_2 0
Z_96_1_3 0
Z_96_1_4 1
Z_96_0_0 0
Z_96_0_1 0
Z_96_0_2 1
Z_96_0_3 0
Z_96_0_4 0
Z_96_2_0 0
Z_96_2_1 0
Z_96_2_2 0
Z_96_2_3 1
Z_96_2_4 0
Z_461_0_0 0
Z_461_0_1 0
Z_461_0_2 1
Z_461_0_3 0
Z_461_0_4 0
Z_37_0_0 0
Z_37_0_1 0
Z_37_0_2 1
Z_37_0_3 0
Z_37_0_4 0
